counter4bit/formal/model/design_smt2.smt2
; SMT-LIBv2 description generated by Yosys 0.33 (git sha1 2584903a060)
; yosys-smt2-module counter4bit
(declare-sort |counter4bit_s| 0)
(declare-fun |counter4bit_is| (|counter4bit_s|) Bool)
(declare-fun |counter4bit#0| (|counter4bit_s|) Bool) ; \rst
; yosys-smt2-input rst 1
; yosys-smt2-wire rst 1
; yosys-smt2-witness {"offset": 0, "path": ["\\rst"], "smtname": "rst", "smtoffset": 0, "type": "input", "width": 1}
(define-fun |counter4bit_n rst| ((state |counter4bit_s|)) Bool (|counter4bit#0| state))
; yosys-smt2-anyinit counter4bit#1 4 counter4bit.v:6.3-16.6
; yosys-smt2-witness {"offset": 0, "path": ["\\_witness_", "\\anyinit_procdff_3"], "smtname": 1, "smtoffset": 0, "type": "init", "width": 4}
(declare-fun |counter4bit#1| (|counter4bit_s|) (_ BitVec 4)) ; \_witness_.anyinit_procdff_3
(define-fun |counter4bit#2| ((state |counter4bit_s|)) (_ BitVec 4) (ite (|counter4bit#0| state) #b0000 (|counter4bit#1| state))) ; \count
; yosys-smt2-output count 4
; yosys-smt2-wire count 4
(define-fun |counter4bit_n count| ((state |counter4bit_s|)) (_ BitVec 4) (|counter4bit#2| state))
(declare-fun |counter4bit#3| (|counter4bit_s|) Bool) ; \clk
; yosys-smt2-input clk 1
; yosys-smt2-wire clk 1
; yosys-smt2-clock clk posedge
; yosys-smt2-witness {"offset": 0, "path": ["\\clk"], "smtname": "clk", "smtoffset": 0, "type": "posedge", "width": 1}
; yosys-smt2-witness {"offset": 0, "path": ["\\clk"], "smtname": "clk", "smtoffset": 0, "type": "input", "width": 1}
(define-fun |counter4bit_n clk| ((state |counter4bit_s|)) Bool (|counter4bit#3| state))
; yosys-smt2-register _witness_.anyinit_procdff_3 4
; yosys-smt2-wire _witness_.anyinit_procdff_3 4
(define-fun |counter4bit_n _witness_.anyinit_procdff_3| ((state |counter4bit_s|)) (_ BitVec 4) (|counter4bit#1| state))
(define-fun |counter4bit#4| ((state |counter4bit_s|)) (_ BitVec 1) (bvnot (ite (|counter4bit#3| state) #b1 #b0))) ; $auto$rtlil.cc:2401:Not$11
; yosys-smt2-assume 0 $auto$formalff.cc:758:execute$12
(define-fun |counter4bit_u 0| ((state |counter4bit_s|)) Bool (or (= ((_ extract 0 0) (|counter4bit#4| state)) #b1) (not true))) ; $auto$formalff.cc:758:execute$12
(define-fun |counter4bit#5| ((state |counter4bit_s|)) (_ BitVec 4) (bvadd (|counter4bit#2| state) #b0001)) ; $0\count[3:0]
(define-fun |counter4bit#6| ((state |counter4bit_s|)) (_ BitVec 4) (ite (|counter4bit#0| state) #b0000 (|counter4bit#5| state))) ; $auto$rtlil.cc:2498:Mux$7
(define-fun |counter4bit_a| ((state |counter4bit_s|)) Bool true)
(define-fun |counter4bit_u| ((state |counter4bit_s|)) Bool 
  (|counter4bit_u 0| state)
)
(define-fun |counter4bit_i| ((state |counter4bit_s|)) Bool true)
(define-fun |counter4bit_h| ((state |counter4bit_s|)) Bool true)
(define-fun |counter4bit_t| ((state |counter4bit_s|) (next_state |counter4bit_s|)) Bool 
  (= (|counter4bit#6| state) (|counter4bit#1| next_state)) ; $procdff$3 \_witness_.anyinit_procdff_3
) ; end of module counter4bit
; yosys-smt2-topmod counter4bit
; end of yosys output
